verilog/rtl/muller_c_proj/muller_c_proj_basic/model/design_smt2.smt2
; SMT-LIBv2 description generated by Yosys 0.45+112 (git sha1 c8b42b7d4, g++ 11.4.0-1ubuntu1~22.04 -fPIC -O3)
; yosys-smt2-module $paramod/muller_c/N=s32'00000000000000000000000000000110
(declare-sort |$paramod/muller_c/N=s32'00000000000000000000000000000110_s| 0)
(declare-fun |$paramod/muller_c/N=s32'00000000000000000000000000000110_is| (|$paramod/muller_c/N=s32'00000000000000000000000000000110_s|) Bool)
(declare-fun |$paramod/muller_c/N=s32'00000000000000000000000000000110#0| (|$paramod/muller_c/N=s32'00000000000000000000000000000110_s|) (_ BitVec 6)) ; \in
(define-fun |$paramod/muller_c/N=s32'00000000000000000000000000000110#1| ((state |$paramod/muller_c/N=s32'00000000000000000000000000000110_s|)) Bool (= (|$paramod/muller_c/N=s32'00000000000000000000000000000110#0| state) #b111111)) ; \andGate
(define-fun |$paramod/muller_c/N=s32'00000000000000000000000000000110#2| ((state |$paramod/muller_c/N=s32'00000000000000000000000000000110_s|)) (_ BitVec 1) (ite (|$paramod/muller_c/N=s32'00000000000000000000000000000110#1| state) #b1 #b0)) ; $0\out[0:0]
; yosys-smt2-witness {"offset": 0, "path": ["$auto$async2sync.cc:262:execute$225"], "smtname": 3, "smtoffset": 0, "type": "reg", "width": 1}
(declare-fun |$paramod/muller_c/N=s32'00000000000000000000000000000110#3| (|$paramod/muller_c/N=s32'00000000000000000000000000000110_s|) (_ BitVec 1)) ; $auto$async2sync.cc:262:execute$225
(define-fun |$paramod/muller_c/N=s32'00000000000000000000000000000110#4| ((state |$paramod/muller_c/N=s32'00000000000000000000000000000110_s|)) (_ BitVec 1) (bvnot (ite (|$paramod/muller_c/N=s32'00000000000000000000000000000110#1| state) #b1 #b0))) ; $auto$rtlil.cc:2485:Not$186
(define-fun |$paramod/muller_c/N=s32'00000000000000000000000000000110#5| ((state |$paramod/muller_c/N=s32'00000000000000000000000000000110_s|)) Bool (distinct (|$paramod/muller_c/N=s32'00000000000000000000000000000110#0| state) #b000000)) ; \orGate
(define-fun |$paramod/muller_c/N=s32'00000000000000000000000000000110#6| ((state |$paramod/muller_c/N=s32'00000000000000000000000000000110_s|)) (_ BitVec 1) (bvand (|$paramod/muller_c/N=s32'00000000000000000000000000000110#4| state) (ite (|$paramod/muller_c/N=s32'00000000000000000000000000000110#5| state) #b1 #b0))) ; $auto$rtlil.cc:2489:ReduceOr$221
(define-fun |$paramod/muller_c/N=s32'00000000000000000000000000000110#7| ((state |$paramod/muller_c/N=s32'00000000000000000000000000000110_s|)) (_ BitVec 1) (ite (= ((_ extract 0 0) (|$paramod/muller_c/N=s32'00000000000000000000000000000110#6| state)) #b1) (|$paramod/muller_c/N=s32'00000000000000000000000000000110#3| state) (|$paramod/muller_c/N=s32'00000000000000000000000000000110#2| state))) ; \out
; yosys-smt2-witness {"offset": 0, "path": ["$auto$async2sync.cc:262:execute$228"], "smtname": 8, "smtoffset": 0, "type": "reg", "width": 1}
(declare-fun |$paramod/muller_c/N=s32'00000000000000000000000000000110#8| (|$paramod/muller_c/N=s32'00000000000000000000000000000110_s|) (_ BitVec 1)) ; $auto$async2sync.cc:262:execute$228
(define-fun |$paramod/muller_c/N=s32'00000000000000000000000000000110#9| ((state |$paramod/muller_c/N=s32'00000000000000000000000000000110_s|)) Bool (not (or  (|$paramod/muller_c/N=s32'00000000000000000000000000000110#5| state) false))) ; $auto$rtlil.cc:2489:ReduceOr$192
(define-fun |$paramod/muller_c/N=s32'00000000000000000000000000000110#10| ((state |$paramod/muller_c/N=s32'00000000000000000000000000000110_s|)) (_ BitVec 1) (bvand (|$paramod/muller_c/N=s32'00000000000000000000000000000110#4| state) (ite (|$paramod/muller_c/N=s32'00000000000000000000000000000110#9| state) #b1 #b0))) ; $auto$rtlil.cc:2515:And$196
(define-fun |$paramod/muller_c/N=s32'00000000000000000000000000000110#11| ((state |$paramod/muller_c/N=s32'00000000000000000000000000000110_s|)) Bool (or  (|$paramod/muller_c/N=s32'00000000000000000000000000000110#1| state) (= ((_ extract 0 0) (|$paramod/muller_c/N=s32'00000000000000000000000000000110#10| state)) #b1))) ; $auto$rtlil.cc:2489:ReduceOr$202
(define-fun |$paramod/muller_c/N=s32'00000000000000000000000000000110#12| ((state |$paramod/muller_c/N=s32'00000000000000000000000000000110_s|)) (_ BitVec 1) (ite (|$paramod/muller_c/N=s32'00000000000000000000000000000110#11| state) (|$paramod/muller_c/N=s32'00000000000000000000000000000110#8| state) (|$paramod/muller_c/N=s32'00000000000000000000000000000110#7| state))) ; \out_prev
; yosys-smt2-output out_prev 1
; yosys-smt2-wire out_prev 1
(define-fun |$paramod/muller_c/N=s32'00000000000000000000000000000110_n out_prev| ((state |$paramod/muller_c/N=s32'00000000000000000000000000000110_s|)) Bool (= ((_ extract 0 0) (|$paramod/muller_c/N=s32'00000000000000000000000000000110#12| state)) #b1))
; yosys-smt2-output out 1
; yosys-smt2-wire out 1
(define-fun |$paramod/muller_c/N=s32'00000000000000000000000000000110_n out| ((state |$paramod/muller_c/N=s32'00000000000000000000000000000110_s|)) Bool (= ((_ extract 0 0) (|$paramod/muller_c/N=s32'00000000000000000000000000000110#7| state)) #b1))
; yosys-smt2-wire orGate 1
(define-fun |$paramod/muller_c/N=s32'00000000000000000000000000000110_n orGate| ((state |$paramod/muller_c/N=s32'00000000000000000000000000000110_s|)) Bool (|$paramod/muller_c/N=s32'00000000000000000000000000000110#5| state))
; yosys-smt2-input in 6
; yosys-smt2-wire in 6
; yosys-smt2-witness {"offset": 0, "path": ["\\in"], "smtname": "in", "smtoffset": 0, "type": "input", "width": 6}
(define-fun |$paramod/muller_c/N=s32'00000000000000000000000000000110_n in| ((state |$paramod/muller_c/N=s32'00000000000000000000000000000110_s|)) (_ BitVec 6) (|$paramod/muller_c/N=s32'00000000000000000000000000000110#0| state))
; yosys-smt2-wire andGate 1
(define-fun |$paramod/muller_c/N=s32'00000000000000000000000000000110_n andGate| ((state |$paramod/muller_c/N=s32'00000000000000000000000000000110_s|)) Bool (|$paramod/muller_c/N=s32'00000000000000000000000000000110#1| state))
; yosys-smt2-register $auto$async2sync.cc:262:execute$228 1
(define-fun |$paramod/muller_c/N=s32'00000000000000000000000000000110_n $auto$async2sync.cc:262:execute$228| ((state |$paramod/muller_c/N=s32'00000000000000000000000000000110_s|)) Bool (= ((_ extract 0 0) (|$paramod/muller_c/N=s32'00000000000000000000000000000110#8| state)) #b1))
; yosys-smt2-register $auto$async2sync.cc:262:execute$225 1
(define-fun |$paramod/muller_c/N=s32'00000000000000000000000000000110_n $auto$async2sync.cc:262:execute$225| ((state |$paramod/muller_c/N=s32'00000000000000000000000000000110_s|)) Bool (= ((_ extract 0 0) (|$paramod/muller_c/N=s32'00000000000000000000000000000110#3| state)) #b1))
(define-fun |$paramod/muller_c/N=s32'00000000000000000000000000000110_a| ((state |$paramod/muller_c/N=s32'00000000000000000000000000000110_s|)) Bool true)
(define-fun |$paramod/muller_c/N=s32'00000000000000000000000000000110_u| ((state |$paramod/muller_c/N=s32'00000000000000000000000000000110_s|)) Bool true)
(define-fun |$paramod/muller_c/N=s32'00000000000000000000000000000110_i| ((state |$paramod/muller_c/N=s32'00000000000000000000000000000110_s|)) Bool (and
  (= (= ((_ extract 0 0) (|$paramod/muller_c/N=s32'00000000000000000000000000000110#8| state)) #b1) false) ; $auto$async2sync.cc:262:execute$228
  (= (= ((_ extract 0 0) (|$paramod/muller_c/N=s32'00000000000000000000000000000110#3| state)) #b1) false) ; $auto$async2sync.cc:262:execute$225
))
(define-fun |$paramod/muller_c/N=s32'00000000000000000000000000000110_h| ((state |$paramod/muller_c/N=s32'00000000000000000000000000000110_s|)) Bool true)
(define-fun |$paramod/muller_c/N=s32'00000000000000000000000000000110_t| ((state |$paramod/muller_c/N=s32'00000000000000000000000000000110_s|) (next_state |$paramod/muller_c/N=s32'00000000000000000000000000000110_s|)) Bool (and
  (= (|$paramod/muller_c/N=s32'00000000000000000000000000000110#12| state) (|$paramod/muller_c/N=s32'00000000000000000000000000000110#8| next_state)) ; $auto$proc_dlatch.cc:433:proc_dlatch$205 $auto$async2sync.cc:262:execute$228
  (= (|$paramod/muller_c/N=s32'00000000000000000000000000000110#7| state) (|$paramod/muller_c/N=s32'00000000000000000000000000000110#3| next_state)) ; $auto$proc_dlatch.cc:433:proc_dlatch$224 $auto$async2sync.cc:262:execute$225
)) ; end of module $paramod/muller_c/N=s32'00000000000000000000000000000110
; yosys-smt2-module muller_c_proj_formal
(declare-sort |muller_c_proj_formal_s| 0)
(declare-fun |muller_c_proj_formal_is| (|muller_c_proj_formal_s|) Bool)
; yosys-smt2-wire transition_stay_EN 1
(define-fun |muller_c_proj_formal_n transition_stay_EN| ((state |muller_c_proj_formal_s|)) Bool true)
; yosys-smt2-wire transition_1_to_1_EN 1
(define-fun |muller_c_proj_formal_n transition_1_to_1_EN| ((state |muller_c_proj_formal_s|)) Bool true)
; yosys-smt2-wire transition_1_to_0_EN 1
(define-fun |muller_c_proj_formal_n transition_1_to_0_EN| ((state |muller_c_proj_formal_s|)) Bool true)
; yosys-smt2-wire transition_0_to_1_EN 1
(define-fun |muller_c_proj_formal_n transition_0_to_1_EN| ((state |muller_c_proj_formal_s|)) Bool true)
; yosys-smt2-wire transition_0_to_0_EN 1
(define-fun |muller_c_proj_formal_n transition_0_to_0_EN| ((state |muller_c_proj_formal_s|)) Bool true)
; yosys-smt2-cell $paramod/muller_c/N=s32'00000000000000000000000000000110 c_element
; yosys-smt2-witness {"path": ["\\c_element"], "smtname": "c_element", "type": "cell"}
(declare-fun |muller_c_proj_formal#0| (|muller_c_proj_formal_s|) Bool) ; \out_prev
(declare-fun |muller_c_proj_formal#1| (|muller_c_proj_formal_s|) Bool) ; \io_out
(declare-fun |muller_c_proj_formal_h c_element| (|muller_c_proj_formal_s|) |$paramod/muller_c/N=s32'00000000000000000000000000000110_s|)
; yosys-smt2-output out_prev 1
; yosys-smt2-wire out_prev 1
(define-fun |muller_c_proj_formal_n out_prev| ((state |muller_c_proj_formal_s|)) Bool (|muller_c_proj_formal#0| state))
; yosys-smt2-output io_out 1
; yosys-smt2-wire io_out 1
(define-fun |muller_c_proj_formal_n io_out| ((state |muller_c_proj_formal_s|)) Bool (|muller_c_proj_formal#1| state))
(declare-fun |muller_c_proj_formal#2| (|muller_c_proj_formal_s|) (_ BitVec 6)) ; \io_in
; yosys-smt2-input io_in 6
; yosys-smt2-wire io_in 6
; yosys-smt2-witness {"offset": 0, "path": ["\\io_in"], "smtname": "io_in", "smtoffset": 0, "type": "input", "width": 6}
(define-fun |muller_c_proj_formal_n io_in| ((state |muller_c_proj_formal_s|)) (_ BitVec 6) (|muller_c_proj_formal#2| state))
(define-fun |muller_c_proj_formal#3| ((state |muller_c_proj_formal_s|)) Bool (distinct (|muller_c_proj_formal#2| state) #b000000)) ; $logic_not$muller_c_proj_formal.v:35$6_Y
(define-fun |muller_c_proj_formal#4| ((state |muller_c_proj_formal_s|)) (_ BitVec 1) (bvnot (ite (|muller_c_proj_formal#3| state) #b1 #b0))) ; $eq$muller_c_proj_formal.v:39$33_Y
(define-fun |muller_c_proj_formal#5| ((state |muller_c_proj_formal_s|)) Bool (= (|muller_c_proj_formal#2| state) #b111111)) ; $eq$muller_c_proj_formal.v:36$13_Y
(define-fun |muller_c_proj_formal#6| ((state |muller_c_proj_formal_s|)) (_ BitVec 1) (bvor (|muller_c_proj_formal#4| state) (ite (|muller_c_proj_formal#5| state) #b1 #b0))) ; $or$muller_c_proj_formal.v:39$36_Y
(define-fun |muller_c_proj_formal#7| ((state |muller_c_proj_formal_s|)) Bool (= (ite (|muller_c_proj_formal#0| state) #b1 #b0) (ite (|muller_c_proj_formal#1| state) #b1 #b0))) ; $eq$muller_c_proj_formal.v:39$37_Y
(define-fun |muller_c_proj_formal#8| ((state |muller_c_proj_formal_s|)) (_ BitVec 1) (bvor (|muller_c_proj_formal#6| state) (ite (|muller_c_proj_formal#7| state) #b1 #b0))) ; $or$muller_c_proj_formal.v:39$38_Y
; yosys-smt2-assert 0 transition_stay
(define-fun |muller_c_proj_formal_a 0| ((state |muller_c_proj_formal_s|)) Bool (or (= ((_ extract 0 0) (|muller_c_proj_formal#8| state)) #b1) (not true))) ; transition_stay
(define-fun |muller_c_proj_formal#9| ((state |muller_c_proj_formal_s|)) Bool (not (or  (|muller_c_proj_formal#5| state) false))) ; $logic_not$muller_c_proj_formal.v:36$14_Y
(define-fun |muller_c_proj_formal#10| ((state |muller_c_proj_formal_s|)) Bool (not (or  (|muller_c_proj_formal#0| state) false))) ; $logic_not$muller_c_proj_formal.v:37$22_Y
(define-fun |muller_c_proj_formal#11| ((state |muller_c_proj_formal_s|)) (_ BitVec 1) (bvor (ite (|muller_c_proj_formal#10| state) #b1 #b0) (ite (|muller_c_proj_formal#1| state) #b1 #b0))) ; $or$muller_c_proj_formal.v:38$30_Y
(define-fun |muller_c_proj_formal#12| ((state |muller_c_proj_formal_s|)) (_ BitVec 1) (bvor (ite (|muller_c_proj_formal#9| state) #b1 #b0) (|muller_c_proj_formal#11| state))) ; $or$muller_c_proj_formal.v:38$31_Y
; yosys-smt2-assert 1 transition_1_to_1
(define-fun |muller_c_proj_formal_a 1| ((state |muller_c_proj_formal_s|)) Bool (or (= ((_ extract 0 0) (|muller_c_proj_formal#12| state)) #b1) (not true))) ; transition_1_to_1
(define-fun |muller_c_proj_formal#13| ((state |muller_c_proj_formal_s|)) Bool (not (or  (|muller_c_proj_formal#1| state) false))) ; $logic_not$muller_c_proj_formal.v:35$9_Y
(define-fun |muller_c_proj_formal#14| ((state |muller_c_proj_formal_s|)) (_ BitVec 1) (bvor (ite (|muller_c_proj_formal#10| state) #b1 #b0) (ite (|muller_c_proj_formal#13| state) #b1 #b0))) ; $or$muller_c_proj_formal.v:37$24_Y
(define-fun |muller_c_proj_formal#15| ((state |muller_c_proj_formal_s|)) (_ BitVec 1) (bvor (ite (|muller_c_proj_formal#3| state) #b1 #b0) (|muller_c_proj_formal#14| state))) ; $or$muller_c_proj_formal.v:37$25_Y
; yosys-smt2-assert 2 transition_1_to_0
(define-fun |muller_c_proj_formal_a 2| ((state |muller_c_proj_formal_s|)) Bool (or (= ((_ extract 0 0) (|muller_c_proj_formal#15| state)) #b1) (not true))) ; transition_1_to_0
(define-fun |muller_c_proj_formal#16| ((state |muller_c_proj_formal_s|)) (_ BitVec 1) (bvor (ite (|muller_c_proj_formal#0| state) #b1 #b0) (ite (|muller_c_proj_formal#1| state) #b1 #b0))) ; $or$muller_c_proj_formal.v:36$17_Y
(define-fun |muller_c_proj_formal#17| ((state |muller_c_proj_formal_s|)) (_ BitVec 1) (bvor (ite (|muller_c_proj_formal#9| state) #b1 #b0) (|muller_c_proj_formal#16| state))) ; $or$muller_c_proj_formal.v:36$18_Y
; yosys-smt2-assert 3 transition_0_to_1
(define-fun |muller_c_proj_formal_a 3| ((state |muller_c_proj_formal_s|)) Bool (or (= ((_ extract 0 0) (|muller_c_proj_formal#17| state)) #b1) (not true))) ; transition_0_to_1
(define-fun |muller_c_proj_formal#18| ((state |muller_c_proj_formal_s|)) (_ BitVec 1) (bvor (ite (|muller_c_proj_formal#0| state) #b1 #b0) (ite (|muller_c_proj_formal#13| state) #b1 #b0))) ; $or$muller_c_proj_formal.v:35$10_Y
(define-fun |muller_c_proj_formal#19| ((state |muller_c_proj_formal_s|)) (_ BitVec 1) (bvor (ite (|muller_c_proj_formal#3| state) #b1 #b0) (|muller_c_proj_formal#18| state))) ; $or$muller_c_proj_formal.v:35$11_Y
; yosys-smt2-assert 4 transition_0_to_0
(define-fun |muller_c_proj_formal_a 4| ((state |muller_c_proj_formal_s|)) Bool (or (= ((_ extract 0 0) (|muller_c_proj_formal#19| state)) #b1) (not true))) ; transition_0_to_0
(define-fun |muller_c_proj_formal_a| ((state |muller_c_proj_formal_s|)) Bool (and
  (|muller_c_proj_formal_a 0| state)
  (|muller_c_proj_formal_a 1| state)
  (|muller_c_proj_formal_a 2| state)
  (|muller_c_proj_formal_a 3| state)
  (|muller_c_proj_formal_a 4| state)
  (|$paramod/muller_c/N=s32'00000000000000000000000000000110_a| (|muller_c_proj_formal_h c_element| state))
))
(define-fun |muller_c_proj_formal_u| ((state |muller_c_proj_formal_s|)) Bool 
  (|$paramod/muller_c/N=s32'00000000000000000000000000000110_u| (|muller_c_proj_formal_h c_element| state))
)
(define-fun |muller_c_proj_formal_i| ((state |muller_c_proj_formal_s|)) Bool 
  (|$paramod/muller_c/N=s32'00000000000000000000000000000110_i| (|muller_c_proj_formal_h c_element| state))
)
(define-fun |muller_c_proj_formal_h| ((state |muller_c_proj_formal_s|)) Bool (and
  (= (|muller_c_proj_formal_is| state) (|$paramod/muller_c/N=s32'00000000000000000000000000000110_is| (|muller_c_proj_formal_h c_element| state)))
  (= (|muller_c_proj_formal#0| state) (|$paramod/muller_c/N=s32'00000000000000000000000000000110_n out_prev| (|muller_c_proj_formal_h c_element| state))) ; $paramod/muller_c/N=s32'00000000000000000000000000000110.out_prev
  (= (|muller_c_proj_formal#1| state) (|$paramod/muller_c/N=s32'00000000000000000000000000000110_n out| (|muller_c_proj_formal_h c_element| state))) ; $paramod/muller_c/N=s32'00000000000000000000000000000110.out
  (= (|muller_c_proj_formal#2| state) (|$paramod/muller_c/N=s32'00000000000000000000000000000110_n in| (|muller_c_proj_formal_h c_element| state))) ; $paramod/muller_c/N=s32'00000000000000000000000000000110.in
  (|$paramod/muller_c/N=s32'00000000000000000000000000000110_h| (|muller_c_proj_formal_h c_element| state))
))
(define-fun |muller_c_proj_formal_t| ((state |muller_c_proj_formal_s|) (next_state |muller_c_proj_formal_s|)) Bool 
  (|$paramod/muller_c/N=s32'00000000000000000000000000000110_t| (|muller_c_proj_formal_h c_element| state) (|muller_c_proj_formal_h c_element| next_state))
) ; end of module muller_c_proj_formal
; yosys-smt2-topmod muller_c_proj_formal
; end of yosys output
